(set-logic QF_NRA)
(set-info :source |Benchmarks generated from hycomp (https://es-static.fbk.eu/tools/hycomp/). BMC instances of non-linear hybrid automata taken from: Alessandro Cimatti, Sergio Mover, Stefano Tonetta, A quantifier-free SMT encoding of non-linear hybrid automata, FMCAD 2012 and Alessandro Cimatti, Sergio Mover, Stefano Tonetta, Quantier-free encoding of invariants for Hybrid Systems, Formal Methods in System Design. This instance solves a BMC problem of depth 1 and uses the quantifier free encoding with equivalences encoding. Contacts: Sergio Mover (mover@fbk.eu), Stefano Tonetta (tonettas@fbk.eu), Alessandro Cimatti (cimatti@fbk.eu).|)
(set-info :smt-lib-version 2.0)
(set-info :category "industrial")
(set-info :status unsat)
;; MathSAT API call trace
;; generated on Mon Mar 19 10:48:38 2012
(declare-fun b.x__AT0 () Real)
(declare-fun b.speed_y__AT1 () Real)
(declare-fun b.delta__AT1 () Real)
(declare-fun b.bool_atom__AT0 () Bool)
(declare-fun b.y__AT0 () Real)
(declare-fun b.EVENT.1__AT1 () Bool)
(declare-fun b.EVENT.0__AT1 () Bool)
(declare-fun b.counter.0__AT0 () Bool)
(declare-fun b.delta__AT0 () Real)
(declare-fun b.counter.1__AT0 () Bool)
(declare-fun b.y__AT1 () Real)
(declare-fun b.EVENT.0__AT0 () Bool)
(declare-fun b.speed_y__AT0 () Real)
(declare-fun b.event_is_timed__AT0 () Bool)
(declare-fun b.counter.3__AT0 () Bool)
(declare-fun b.speed_x__AT1 () Real)
(declare-fun b.time__AT1 () Real)
(declare-fun b.x__AT1 () Real)
(declare-fun b.event_is_timed__AT1 () Bool)
(declare-fun b.counter.0__AT1 () Bool)
(declare-fun b.EVENT.1__AT0 () Bool)
(declare-fun b.speed_loss__AT0 () Real)
(declare-fun b.counter.1__AT1 () Bool)
(declare-fun b.speed_x__AT0 () Real)
(declare-fun b.counter.2__AT1 () Bool)
(declare-fun b.time__AT0 () Real)
(declare-fun b.counter.2__AT0 () Bool)
(declare-fun b.counter.3__AT1 () Bool)
(declare-fun b.bool_atom__AT1 () Bool)
(assert (let ((.def_463 (* (- 49.0) b.delta__AT1)))
(let ((.def_464 (* 5.0 b.speed_y__AT1)))
(let ((.def_466 (+ .def_464 .def_463)))
(let ((.def_469 (<= 0.0 .def_466)))
(let ((.def_397 (* b.y__AT1 b.speed_y__AT1)))
(let ((.def_437 (* 2.0 .def_397)))
(let ((.def_438 (+ b.speed_x__AT1 .def_437)))
(let ((.def_442 (<= .def_438 0.0 )))
(let ((.def_470 (and .def_442 .def_469)))
(let ((.def_467 (<= .def_466 0.0 )))
(let ((.def_439 (<= 0.0 .def_438)))
(let ((.def_468 (and .def_439 .def_467)))
(let ((.def_471 (or .def_468 .def_470)))
(let ((.def_386 (* (- (/ 49 10)) b.speed_y__AT1)))
(let ((.def_415 (* 3.0 .def_386)))
(let ((.def_447 (* 2.0 .def_415)))
(let ((.def_448 (* b.delta__AT1 .def_447)))
(let ((.def_449 (* (- 50.0) .def_448)))
(let ((.def_381 (* b.delta__AT1 b.delta__AT1)))
(let ((.def_446 (* (- 7203.0) .def_381)))
(let ((.def_450 (+ .def_446 .def_449)))
(let ((.def_264 (* b.speed_y__AT1 b.speed_y__AT1)))
(let ((.def_451 (* (- 50.0) .def_264)))
(let ((.def_455 (+ .def_451 .def_450)))
(let ((.def_453 (* 490.0 b.y__AT1)))
(let ((.def_456 (+ .def_453 .def_455)))
(let ((.def_459 (<= 0.0 .def_456)))
(let ((.def_460 (and .def_442 .def_459)))
(let ((.def_457 (<= .def_456 0.0 )))
(let ((.def_458 (and .def_439 .def_457)))
(let ((.def_461 (or .def_458 .def_460)))
(let ((.def_393 (* (- (/ 49 10)) b.y__AT1)))
(let ((.def_423 (* 2.0 .def_393)))
(let ((.def_424 (* b.delta__AT1 .def_423)))
(let ((.def_425 (* 50.0 .def_424)))
(let ((.def_419 (* 2.0 .def_264)))
(let ((.def_420 (* b.delta__AT1 .def_419)))
(let ((.def_421 (* 25.0 .def_420)))
(let ((.def_431 (+ .def_421 .def_425)))
(let ((.def_416 (* .def_381 .def_415)))
(let ((.def_417 (* 50.0 .def_416)))
(let ((.def_432 (+ .def_417 .def_431)))
(let ((.def_427 (* 50.0 .def_397)))
(let ((.def_433 (+ .def_427 .def_432)))
(let ((.def_382 (* b.delta__AT1 .def_381)))
(let ((.def_414 (* 2401.0 .def_382)))
(let ((.def_434 (+ .def_414 .def_433)))
(let ((.def_429 (* 25.0 b.speed_x__AT1)))
(let ((.def_435 (+ .def_429 .def_434)))
(let ((.def_441 (<= .def_435 0.0 )))
(let ((.def_443 (and .def_441 .def_442)))
(let ((.def_436 (<= 0.0 .def_435)))
(let ((.def_440 (and .def_436 .def_439)))
(let ((.def_444 (or .def_440 .def_443)))
(let ((.def_398 (* b.delta__AT1 .def_397)))
(let ((.def_399 (* 200.0 .def_398)))
(let ((.def_394 (* .def_381 .def_393)))
(let ((.def_395 (* 200.0 .def_394)))
(let ((.def_405 (+ .def_395 .def_399)))
(let ((.def_390 (* .def_264 .def_381)))
(let ((.def_391 (* 100.0 .def_390)))
(let ((.def_406 (+ .def_391 .def_405)))
(let ((.def_387 (* .def_382 .def_386)))
(let ((.def_388 (* 200.0 .def_387)))
(let ((.def_407 (+ .def_388 .def_406)))
(let ((.def_383 (* b.delta__AT1 .def_382)))
(let ((.def_384 (* 2401.0 .def_383)))
(let ((.def_408 (+ .def_384 .def_407)))
(let ((.def_379 (* b.speed_x__AT1 b.delta__AT1)))
(let ((.def_380 (* 100.0 .def_379)))
(let ((.def_409 (+ .def_380 .def_408)))
(let ((.def_370 (* b.y__AT1 b.y__AT1)))
(let ((.def_401 (* 100.0 .def_370)))
(let ((.def_410 (+ .def_401 .def_409)))
(let ((.def_403 (* 100.0 b.x__AT1)))
(let ((.def_411 (+ .def_403 .def_410)))
(let ((.def_412 (<= 0.0 .def_411)))
(let ((.def_371 (+ b.x__AT1 .def_370)))
(let ((.def_372 (<= 0.0 .def_371)))
(let ((.def_413 (and .def_372 .def_412)))
(let ((.def_445 (and .def_413 .def_444)))
(let ((.def_462 (and .def_445 .def_461)))
(let ((.def_472 (and .def_462 .def_471)))
(let ((.def_66 (<= b.speed_loss__AT0 (/ 1 2))))
(let ((.def_63 (<= (/ 1 10) b.speed_loss__AT0)))
(let ((.def_67 (and .def_63 .def_66)))
(let ((.def_473 (and .def_67 .def_472)))
(let ((.def_373 (and .def_67 .def_372)))
(let ((.def_367 (not b.EVENT.0__AT1)))
(let ((.def_365 (not b.EVENT.1__AT1)))
(let ((.def_368 (or .def_365 .def_367)))
(let ((.def_6 (not b.counter.0__AT1)))
(let ((.def_4 (not b.counter.1__AT1)))
(let ((.def_358 (or .def_4 .def_6)))
(let ((.def_362 (or b.counter.3__AT1 .def_358)))
(let ((.def_359 (or b.counter.2__AT1 .def_358)))
(let ((.def_9 (not b.counter.2__AT1)))
(let ((.def_357 (or .def_6 .def_9)))
(let ((.def_360 (and .def_357 .def_359)))
(let ((.def_286 (not b.counter.3__AT1)))
(let ((.def_361 (or .def_286 .def_360)))
(let ((.def_363 (and .def_361 .def_362)))
(let ((.def_369 (and .def_363 .def_368)))
(let ((.def_374 (and .def_369 .def_373)))
(let ((.def_352 (<= 0.0 b.delta__AT0)))
(let ((.def_55 (not b.EVENT.0__AT0)))
(let ((.def_53 (not b.EVENT.1__AT0)))
(let ((.def_186 (and .def_53 .def_55)))
(let ((.def_188 (not .def_186)))
(let ((.def_353 (or .def_188 .def_352)))
(let ((.def_354 (or b.EVENT.1__AT0 .def_353)))
(let ((.def_229 (= b.bool_atom__AT0 b.bool_atom__AT1)))
(let ((.def_224 (= b.counter.0__AT1 b.counter.0__AT0)))
(let ((.def_222 (= b.counter.1__AT1 b.counter.1__AT0)))
(let ((.def_220 (= b.counter.2__AT1 b.counter.2__AT0)))
(let ((.def_219 (= b.counter.3__AT0 b.counter.3__AT1)))
(let ((.def_221 (and .def_219 .def_220)))
(let ((.def_223 (and .def_221 .def_222)))
(let ((.def_225 (and .def_223 .def_224)))
(let ((.def_348 (and .def_225 .def_229)))
(let ((.def_349 (or .def_188 .def_348)))
(let ((.def_350 (or b.EVENT.1__AT0 .def_349)))
(let ((.def_330 (* b.speed_y__AT0 b.delta__AT0)))
(let ((.def_331 (* 10.0 .def_330)))
(let ((.def_335 (* (- 10.0) b.y__AT1)))
(let ((.def_339 (+ .def_335 .def_331)))
(let ((.def_76 (* b.delta__AT0 b.delta__AT0)))
(let ((.def_332 (* (- 49.0) .def_76)))
(let ((.def_340 (+ .def_332 .def_339)))
(let ((.def_337 (* 10.0 b.y__AT0)))
(let ((.def_341 (+ .def_337 .def_340)))
(let ((.def_342 (= .def_341 0.0 )))
(let ((.def_325 (* (- 5.0) b.speed_y__AT1)))
(let ((.def_173 (* (- 49.0) b.delta__AT0)))
(let ((.def_326 (+ .def_173 .def_325)))
(let ((.def_175 (* 5.0 b.speed_y__AT0)))
(let ((.def_327 (+ .def_175 .def_326)))
(let ((.def_328 (= .def_327 0.0 )))
(let ((.def_320 (* (- 1.0) b.x__AT1)))
(let ((.def_73 (* b.speed_x__AT0 b.delta__AT0)))
(let ((.def_321 (+ .def_73 .def_320)))
(let ((.def_322 (+ b.x__AT0 .def_321)))
(let ((.def_323 (= .def_322 0.0 )))
(let ((.def_329 (and .def_323 .def_328)))
(let ((.def_343 (and .def_329 .def_342)))
(let ((.def_213 (= b.speed_x__AT0 b.speed_x__AT1)))
(let ((.def_344 (and .def_213 .def_343)))
(let ((.def_345 (or .def_188 .def_344)))
(let ((.def_210 (= b.y__AT0 b.y__AT1)))
(let ((.def_207 (= b.x__AT0 b.x__AT1)))
(let ((.def_314 (and .def_207 .def_210)))
(let ((.def_315 (and .def_213 .def_314)))
(let ((.def_216 (= b.speed_y__AT0 b.speed_y__AT1)))
(let ((.def_316 (and .def_216 .def_315)))
(let ((.def_311 (= b.delta__AT0 0.0 )))
(let ((.def_312 (and .def_186 .def_311)))
(let ((.def_313 (not .def_312)))
(let ((.def_317 (or .def_313 .def_316)))
(let ((.def_318 (or b.EVENT.1__AT0 .def_317)))
(let ((.def_303 (and .def_213 .def_216)))
(let ((.def_304 (and .def_225 .def_303)))
(let ((.def_305 (or b.bool_atom__AT0 .def_304)))
(let ((.def_278 (or .def_6 b.counter.0__AT0)))
(let ((.def_36 (not b.counter.0__AT0)))
(let ((.def_277 (or b.counter.0__AT1 .def_36)))
(let ((.def_279 (and .def_277 .def_278)))
(let ((.def_280 (and .def_4 .def_279)))
(let ((.def_281 (or b.counter.1__AT0 .def_280)))
(let ((.def_34 (not b.counter.1__AT0)))
(let ((.def_276 (or b.counter.1__AT1 .def_34)))
(let ((.def_282 (and .def_276 .def_281)))
(let ((.def_294 (and .def_9 .def_282)))
(let ((.def_295 (or b.counter.2__AT0 .def_294)))
(let ((.def_289 (and .def_4 .def_36)))
(let ((.def_290 (or b.counter.1__AT0 .def_289)))
(let ((.def_291 (and .def_276 .def_290)))
(let ((.def_292 (and b.counter.2__AT1 .def_291)))
(let ((.def_39 (not b.counter.2__AT0)))
(let ((.def_293 (or .def_39 .def_292)))
(let ((.def_296 (and .def_293 .def_295)))
(let ((.def_297 (and b.counter.3__AT1 .def_296)))
(let ((.def_298 (or b.counter.3__AT0 .def_297)))
(let ((.def_283 (and b.counter.2__AT1 .def_282)))
(let ((.def_284 (or b.counter.2__AT0 .def_283)))
(let ((.def_272 (or b.counter.1__AT1 b.counter.1__AT0)))
(let ((.def_270 (and .def_4 b.counter.0__AT1)))
(let ((.def_271 (or .def_34 .def_270)))
(let ((.def_273 (and .def_271 .def_272)))
(let ((.def_274 (and .def_9 .def_273)))
(let ((.def_275 (or .def_39 .def_274)))
(let ((.def_285 (and .def_275 .def_284)))
(let ((.def_287 (and .def_285 .def_286)))
(let ((.def_42 (not b.counter.3__AT0)))
(let ((.def_288 (or .def_42 .def_287)))
(let ((.def_299 (and .def_288 .def_298)))
(let ((.def_259 (* b.speed_x__AT0 b.speed_x__AT0)))
(let ((.def_90 (* b.speed_y__AT0 b.speed_y__AT0)))
(let ((.def_260 (+ .def_90 .def_259)))
(let ((.def_245 (* (- 1.0) b.speed_loss__AT0)))
(let ((.def_246 (+ 1.0 .def_245)))
(let ((.def_258 (* .def_246 .def_246)))
(let ((.def_261 (* .def_258 .def_260)))
(let ((.def_262 (* (- 1.0) .def_261)))
(let ((.def_266 (+ .def_262 .def_264)))
(let ((.def_257 (* b.speed_x__AT1 b.speed_x__AT1)))
(let ((.def_267 (+ .def_257 .def_266)))
(let ((.def_268 (= .def_267 0.0 )))
(let ((.def_235 (* 2.0 b.y__AT0)))
(let ((.def_249 (* .def_235 .def_246)))
(let ((.def_250 (* b.speed_y__AT0 .def_249)))
(let ((.def_247 (* b.speed_x__AT0 .def_246)))
(let ((.def_253 (+ .def_247 .def_250)))
(let ((.def_243 (* 2.0 b.y__AT1)))
(let ((.def_244 (* b.speed_y__AT1 .def_243)))
(let ((.def_254 (+ .def_244 .def_253)))
(let ((.def_255 (+ b.speed_x__AT1 .def_254)))
(let ((.def_256 (= .def_255 0.0 )))
(let ((.def_269 (and .def_256 .def_268)))
(let ((.def_300 (and .def_269 .def_299)))
(let ((.def_242 (not b.bool_atom__AT0)))
(let ((.def_301 (or .def_242 .def_300)))
(let ((.def_236 (* b.speed_y__AT0 .def_235)))
(let ((.def_237 (+ b.speed_x__AT0 .def_236)))
(let ((.def_238 (<= 0.0 .def_237)))
(let ((.def_239 (not .def_238)))
(let ((.def_58 (* b.y__AT0 b.y__AT0)))
(let ((.def_59 (+ b.x__AT0 .def_58)))
(let ((.def_234 (= .def_59 0.0 )))
(let ((.def_240 (and .def_234 .def_239)))
(let ((.def_241 (= b.bool_atom__AT0 .def_240)))
(let ((.def_302 (and .def_241 .def_301)))
(let ((.def_306 (and .def_302 .def_305)))
(let ((.def_307 (and .def_207 .def_306)))
(let ((.def_308 (and .def_210 .def_307)))
(let ((.def_309 (or .def_186 .def_308)))
(let ((.def_310 (or b.EVENT.1__AT0 .def_309)))
(let ((.def_319 (and .def_310 .def_318)))
(let ((.def_346 (and .def_319 .def_345)))
(let ((.def_193 (= b.time__AT0 b.time__AT1)))
(let ((.def_208 (and .def_193 .def_207)))
(let ((.def_211 (and .def_208 .def_210)))
(let ((.def_214 (and .def_211 .def_213)))
(let ((.def_217 (and .def_214 .def_216)))
(let ((.def_226 (and .def_217 .def_225)))
(let ((.def_230 (and .def_226 .def_229)))
(let ((.def_231 (or .def_53 .def_230)))
(let ((.def_197 (* (- 1.0) b.time__AT1)))
(let ((.def_200 (+ b.delta__AT0 .def_197)))
(let ((.def_201 (+ b.time__AT0 .def_200)))
(let ((.def_202 (= .def_201 0.0 )))
(let ((.def_203 (or .def_188 .def_202)))
(let ((.def_204 (or b.EVENT.1__AT0 .def_203)))
(let ((.def_194 (or .def_186 .def_193)))
(let ((.def_195 (or b.EVENT.1__AT0 .def_194)))
(let ((.def_205 (and .def_195 .def_204)))
(let ((.def_232 (and .def_205 .def_231)))
(let ((.def_190 (= .def_188 b.event_is_timed__AT1)))
(let ((.def_187 (= b.event_is_timed__AT0 .def_186)))
(let ((.def_191 (and .def_187 .def_190)))
(let ((.def_233 (and .def_191 .def_232)))
(let ((.def_347 (and .def_233 .def_346)))
(let ((.def_351 (and .def_347 .def_350)))
(let ((.def_355 (and .def_351 .def_354)))
(let ((.def_356 (and .def_53 .def_355)))
(let ((.def_375 (and .def_356 .def_374)))
(let ((.def_37 (and .def_34 .def_36)))
(let ((.def_40 (and .def_37 .def_39)))
(let ((.def_376 (and .def_40 .def_375)))
(let ((.def_177 (+ .def_175 .def_173)))
(let ((.def_180 (<= 0.0 .def_177)))
(let ((.def_98 (* b.y__AT0 b.speed_y__AT0)))
(let ((.def_141 (* 2.0 .def_98)))
(let ((.def_142 (+ b.speed_x__AT0 .def_141)))
(let ((.def_146 (<= .def_142 0.0 )))
(let ((.def_181 (and .def_146 .def_180)))
(let ((.def_178 (<= .def_177 0.0 )))
(let ((.def_143 (<= 0.0 .def_142)))
(let ((.def_179 (and .def_143 .def_178)))
(let ((.def_182 (or .def_179 .def_181)))
(let ((.def_85 (* (- (/ 49 10)) b.speed_y__AT0)))
(let ((.def_117 (* 3.0 .def_85)))
(let ((.def_153 (* 2.0 .def_117)))
(let ((.def_154 (* b.delta__AT0 .def_153)))
(let ((.def_156 (* (- 50.0) .def_154)))
(let ((.def_158 (* (- 50.0) .def_90)))
(let ((.def_163 (+ .def_158 .def_156)))
(let ((.def_152 (* (- 7203.0) .def_76)))
(let ((.def_164 (+ .def_152 .def_163)))
(let ((.def_161 (* 490.0 b.y__AT0)))
(let ((.def_165 (+ .def_161 .def_164)))
(let ((.def_168 (<= 0.0 .def_165)))
(let ((.def_169 (and .def_146 .def_168)))
(let ((.def_166 (<= .def_165 0.0 )))
(let ((.def_167 (and .def_143 .def_166)))
(let ((.def_170 (or .def_167 .def_169)))
(let ((.def_94 (* (- (/ 49 10)) b.y__AT0)))
(let ((.def_127 (* 2.0 .def_94)))
(let ((.def_128 (* b.delta__AT0 .def_127)))
(let ((.def_129 (* 50.0 .def_128)))
(let ((.def_122 (* 2.0 .def_90)))
(let ((.def_123 (* b.delta__AT0 .def_122)))
(let ((.def_125 (* 25.0 .def_123)))
(let ((.def_135 (+ .def_125 .def_129)))
(let ((.def_118 (* .def_76 .def_117)))
(let ((.def_120 (* 50.0 .def_118)))
(let ((.def_136 (+ .def_120 .def_135)))
(let ((.def_131 (* 50.0 .def_98)))
(let ((.def_137 (+ .def_131 .def_136)))
(let ((.def_77 (* b.delta__AT0 .def_76)))
(let ((.def_115 (* 2401.0 .def_77)))
(let ((.def_138 (+ .def_115 .def_137)))
(let ((.def_133 (* 25.0 b.speed_x__AT0)))
(let ((.def_139 (+ .def_133 .def_138)))
(let ((.def_145 (<= .def_139 0.0 )))
(let ((.def_147 (and .def_145 .def_146)))
(let ((.def_140 (<= 0.0 .def_139)))
(let ((.def_144 (and .def_140 .def_143)))
(let ((.def_148 (or .def_144 .def_147)))
(let ((.def_99 (* b.delta__AT0 .def_98)))
(let ((.def_100 (* 200.0 .def_99)))
(let ((.def_95 (* .def_76 .def_94)))
(let ((.def_96 (* 200.0 .def_95)))
(let ((.def_106 (+ .def_96 .def_100)))
(let ((.def_91 (* .def_76 .def_90)))
(let ((.def_92 (* 100.0 .def_91)))
(let ((.def_107 (+ .def_92 .def_106)))
(let ((.def_86 (* .def_77 .def_85)))
(let ((.def_88 (* 200.0 .def_86)))
(let ((.def_108 (+ .def_88 .def_107)))
(let ((.def_78 (* b.delta__AT0 .def_77)))
(let ((.def_80 (* 2401.0 .def_78)))
(let ((.def_109 (+ .def_80 .def_108)))
(let ((.def_75 (* 100.0 .def_73)))
(let ((.def_110 (+ .def_75 .def_109)))
(let ((.def_102 (* 100.0 .def_58)))
(let ((.def_111 (+ .def_102 .def_110)))
(let ((.def_104 (* 100.0 b.x__AT0)))
(let ((.def_112 (+ .def_104 .def_111)))
(let ((.def_113 (<= 0.0 .def_112)))
(let ((.def_60 (<= 0.0 .def_59)))
(let ((.def_114 (and .def_60 .def_113)))
(let ((.def_149 (and .def_114 .def_148)))
(let ((.def_171 (and .def_149 .def_170)))
(let ((.def_183 (and .def_171 .def_182)))
(let ((.def_184 (and .def_67 .def_183)))
(let ((.def_68 (and .def_60 .def_67)))
(let ((.def_56 (or .def_53 .def_55)))
(let ((.def_46 (or .def_34 .def_36)))
(let ((.def_50 (or b.counter.3__AT0 .def_46)))
(let ((.def_47 (or b.counter.2__AT0 .def_46)))
(let ((.def_45 (or .def_36 .def_39)))
(let ((.def_48 (and .def_45 .def_47)))
(let ((.def_49 (or .def_42 .def_48)))
(let ((.def_51 (and .def_49 .def_50)))
(let ((.def_57 (and .def_51 .def_56)))
(let ((.def_69 (and .def_57 .def_68)))
(let ((.def_43 (and .def_40 .def_42)))
(let ((.def_31 (= b.speed_y__AT0 1.0 )))
(let ((.def_28 (= b.speed_x__AT0 1.0 )))
(let ((.def_24 (= b.y__AT0 10.0 )))
(let ((.def_20 (= b.x__AT0 (- 9.0) )))
(let ((.def_14 (= b.time__AT0 0.0 )))
(let ((.def_16 (and .def_14 b.event_is_timed__AT0)))
(let ((.def_21 (and .def_16 .def_20)))
(let ((.def_25 (and .def_21 .def_24)))
(let ((.def_29 (and .def_25 .def_28)))
(let ((.def_32 (and .def_29 .def_31)))
(let ((.def_44 (and .def_32 .def_43)))
(let ((.def_70 (and .def_44 .def_69)))
(let ((.def_7 (and .def_4 .def_6)))
(let ((.def_10 (and .def_7 .def_9)))
(let ((.def_11 (not .def_10)))
(let ((.def_71 (and .def_11 .def_70)))
(let ((.def_185 (and .def_71 .def_184)))
(let ((.def_377 (and .def_185 .def_376)))
(let ((.def_474 (and .def_377 .def_473)))
.def_474)))))))))))))))))))))))))))))))))))))))))))))))))))))))))))))))))))))))))))))))))))))))))))))))))))))))))))))))))))))))))))))))))))))))))))))))))))))))))))))))))))))))))))))))))))))))))))))))))))))))))))))))))))))))))))))))))))))))))))))))))))))))))))))))))))))))))))))))))))))))))))))))))))))))))))))))))))))))))))))))))))))))))))))))))))))))))))))))))))))))))))))))))))))))))
(check-sat)
(exit)
